c Standarized MaxSat Instance
c{
c "sha1sum": "e402148173bd04a6d14248e2e0b10254d9c538dd",
c "nvars": 40,
c "ncls": 1092,
c "nhards": 0,
c "nhard_len_stats":
c    { "min": 0, "max": 0, "ave": 0.00,
c      "stddev": 0.00 },
c "nsofts": 1092,
c "nsoft_len_stats":
c    { "min": 2, "max": 2, "ave": 2.00,
c      "stddev": 0.00 },
c "nsoft_wts": 10,
c "soft_wt_stats":
c    { "min": 1, "max": 10, "ave": 5.66,
c      "stddev": 2.82 }
c}
c------------------------------------------------------------
c File:  sanr200_0.7.clq
c
c SOURCE: Laura Sanchis (laura@cs.colgate.edu)
c
c DESCRIPTION:  Randomly generated graph of similar size to "san"
c               graphs, but with differenct clique characteristics
c
c REFERENCE: "Test Case Construction for the Vertex Cover Problem", 
c DIMACS Workshop on Computational Support for Discrete Mathematics, 
c March, 1992, with additional work in a to be published technical
c report.
c
c random graph 200 vertices 13868 edges
c 200 0.300000 3769
p wcnf 40 1092 6181
9 1 2 0
9 -1 -2 0
4 1 3 0
4 -1 -3 0
8 1 4 0
8 -1 -4 0
8 1 5 0
8 -1 -5 0
10 1 6 0
10 -1 -6 0
2 1 7 0
2 -1 -7 0
4 1 8 0
4 -1 -8 0
8 1 10 0
8 -1 -10 0
3 1 11 0
3 -1 -11 0
6 1 13 0
6 -1 -13 0
5 1 14 0
5 -1 -14 0
7 1 17 0
7 -1 -17 0
4 1 19 0
4 -1 -19 0
6 1 20 0
6 -1 -20 0
10 1 22 0
10 -1 -22 0
10 1 23 0
10 -1 -23 0
7 1 24 0
7 -1 -24 0
8 1 25 0
8 -1 -25 0
2 1 26 0
2 -1 -26 0
7 1 27 0
7 -1 -27 0
1 1 29 0
1 -1 -29 0
3 1 30 0
3 -1 -30 0
2 1 31 0
2 -1 -31 0
9 1 33 0
9 -1 -33 0
2 1 34 0
2 -1 -34 0
5 1 35 0
5 -1 -35 0
2 1 36 0
2 -1 -36 0
2 1 37 0
2 -1 -37 0
10 1 38 0
10 -1 -38 0
3 1 40 0
3 -1 -40 0
6 2 3 0
6 -2 -3 0
9 2 4 0
9 -2 -4 0
7 2 6 0
7 -2 -6 0
3 2 8 0
3 -2 -8 0
7 2 10 0
7 -2 -10 0
6 2 12 0
6 -2 -12 0
5 2 17 0
5 -2 -17 0
10 2 18 0
10 -2 -18 0
3 2 19 0
3 -2 -19 0
8 2 20 0
8 -2 -20 0
6 2 21 0
6 -2 -21 0
8 2 22 0
8 -2 -22 0
5 2 23 0
5 -2 -23 0
9 2 24 0
9 -2 -24 0
3 2 25 0
3 -2 -25 0
4 2 26 0
4 -2 -26 0
9 2 27 0
9 -2 -27 0
10 2 28 0
10 -2 -28 0
1 2 29 0
1 -2 -29 0
10 2 30 0
10 -2 -30 0
6 2 31 0
6 -2 -31 0
1 2 33 0
1 -2 -33 0
2 2 34 0
2 -2 -34 0
7 2 38 0
7 -2 -38 0
9 2 39 0
9 -2 -39 0
4 2 40 0
4 -2 -40 0
1 3 4 0
1 -3 -4 0
1 3 5 0
1 -3 -5 0
5 3 6 0
5 -3 -6 0
1 3 8 0
1 -3 -8 0
3 3 9 0
3 -3 -9 0
10 3 10 0
10 -3 -10 0
10 3 11 0
10 -3 -11 0
9 3 12 0
9 -3 -12 0
3 3 17 0
3 -3 -17 0
6 3 19 0
6 -3 -19 0
4 3 20 0
4 -3 -20 0
8 3 22 0
8 -3 -22 0
6 3 23 0
6 -3 -23 0
7 3 24 0
7 -3 -24 0
6 3 25 0
6 -3 -25 0
1 3 26 0
1 -3 -26 0
5 3 27 0
5 -3 -27 0
10 3 28 0
10 -3 -28 0
10 3 29 0
10 -3 -29 0
8 3 30 0
8 -3 -30 0
3 3 31 0
3 -3 -31 0
8 3 32 0
8 -3 -32 0
7 3 33 0
7 -3 -33 0
4 3 34 0
4 -3 -34 0
7 3 35 0
7 -3 -35 0
2 3 36 0
2 -3 -36 0
5 3 37 0
5 -3 -37 0
9 3 38 0
9 -3 -38 0
9 3 40 0
9 -3 -40 0
4 4 5 0
4 -4 -5 0
3 4 6 0
3 -4 -6 0
9 4 7 0
9 -4 -7 0
4 4 8 0
4 -4 -8 0
7 4 9 0
7 -4 -9 0
10 4 10 0
10 -4 -10 0
6 4 11 0
6 -4 -11 0
7 4 13 0
7 -4 -13 0
9 4 14 0
9 -4 -14 0
5 4 15 0
5 -4 -15 0
10 4 16 0
10 -4 -16 0
4 4 17 0
4 -4 -17 0
9 4 18 0
9 -4 -18 0
7 4 20 0
7 -4 -20 0
10 4 21 0
10 -4 -21 0
5 4 22 0
5 -4 -22 0
3 4 23 0
3 -4 -23 0
10 4 25 0
10 -4 -25 0
10 4 28 0
10 -4 -28 0
2 4 29 0
2 -4 -29 0
9 4 32 0
9 -4 -32 0
7 4 33 0
7 -4 -33 0
5 4 34 0
5 -4 -34 0
7 4 35 0
7 -4 -35 0
3 4 36 0
3 -4 -36 0
8 4 38 0
8 -4 -38 0
4 5 7 0
4 -5 -7 0
5 5 9 0
5 -5 -9 0
3 5 12 0
3 -5 -12 0
2 5 13 0
2 -5 -13 0
3 5 14 0
3 -5 -14 0
6 5 16 0
6 -5 -16 0
5 5 17 0
5 -5 -17 0
2 5 18 0
2 -5 -18 0
10 5 21 0
10 -5 -21 0
2 5 23 0
2 -5 -23 0
2 5 24 0
2 -5 -24 0
5 5 25 0
5 -5 -25 0
8 5 27 0
8 -5 -27 0
10 5 28 0
10 -5 -28 0
10 5 29 0
10 -5 -29 0
7 5 30 0
7 -5 -30 0
4 5 31 0
4 -5 -31 0
8 5 32 0
8 -5 -32 0
4 5 34 0
4 -5 -34 0
3 5 35 0
3 -5 -35 0
3 5 36 0
3 -5 -36 0
6 5 38 0
6 -5 -38 0
3 5 39 0
3 -5 -39 0
2 6 8 0
2 -6 -8 0
8 6 10 0
8 -6 -10 0
2 6 13 0
2 -6 -13 0
8 6 15 0
8 -6 -15 0
2 6 16 0
2 -6 -16 0
8 6 17 0
8 -6 -17 0
1 6 18 0
1 -6 -18 0
10 6 21 0
10 -6 -21 0
1 6 23 0
1 -6 -23 0
6 6 24 0
6 -6 -24 0
2 6 26 0
2 -6 -26 0
3 6 27 0
3 -6 -27 0
8 6 28 0
8 -6 -28 0
8 6 29 0
8 -6 -29 0
7 6 30 0
7 -6 -30 0
10 6 31 0
10 -6 -31 0
7 6 34 0
7 -6 -34 0
8 6 35 0
8 -6 -35 0
1 6 37 0
1 -6 -37 0
2 6 40 0
2 -6 -40 0
6 7 8 0
6 -7 -8 0
1 7 9 0
1 -7 -9 0
1 7 10 0
1 -7 -10 0
3 7 11 0
3 -7 -11 0
5 7 13 0
5 -7 -13 0
9 7 15 0
9 -7 -15 0
6 7 16 0
6 -7 -16 0
8 7 18 0
8 -7 -18 0
1 7 19 0
1 -7 -19 0
2 7 22 0
2 -7 -22 0
10 7 23 0
10 -7 -23 0
3 7 24 0
3 -7 -24 0
9 7 25 0
9 -7 -25 0
2 7 26 0
2 -7 -26 0
10 7 27 0
10 -7 -27 0
1 7 28 0
1 -7 -28 0
9 7 29 0
9 -7 -29 0
1 7 31 0
1 -7 -31 0
1 7 32 0
1 -7 -32 0
10 7 33 0
10 -7 -33 0
6 7 34 0
6 -7 -34 0
2 7 35 0
2 -7 -35 0
2 7 38 0
2 -7 -38 0
4 7 39 0
4 -7 -39 0
10 7 40 0
10 -7 -40 0
9 8 9 0
9 -8 -9 0
4 8 10 0
4 -8 -10 0
6 8 14 0
6 -8 -14 0
6 8 15 0
6 -8 -15 0
5 8 16 0
5 -8 -16 0
7 8 17 0
7 -8 -17 0
1 8 18 0
1 -8 -18 0
6 8 19 0
6 -8 -19 0
8 8 20 0
8 -8 -20 0
4 8 21 0
4 -8 -21 0
10 8 22 0
10 -8 -22 0
6 8 23 0
6 -8 -23 0
9 8 26 0
9 -8 -26 0
8 8 27 0
8 -8 -27 0
7 8 29 0
7 -8 -29 0
1 8 30 0
1 -8 -30 0
8 8 31 0
8 -8 -31 0
9 8 33 0
9 -8 -33 0
10 8 34 0
10 -8 -34 0
9 8 35 0
9 -8 -35 0
9 8 37 0
9 -8 -37 0
10 8 38 0
10 -8 -38 0
8 8 39 0
8 -8 -39 0
10 8 40 0
10 -8 -40 0
10 9 10 0
10 -9 -10 0
7 9 12 0
7 -9 -12 0
5 9 13 0
5 -9 -13 0
2 9 14 0
2 -9 -14 0
9 9 15 0
9 -9 -15 0
9 9 17 0
9 -9 -17 0
1 9 18 0
1 -9 -18 0
7 9 19 0
7 -9 -19 0
3 9 20 0
3 -9 -20 0
7 9 24 0
7 -9 -24 0
3 9 25 0
3 -9 -25 0
8 9 26 0
8 -9 -26 0
4 9 27 0
4 -9 -27 0
4 9 28 0
4 -9 -28 0
3 9 29 0
3 -9 -29 0
1 9 30 0
1 -9 -30 0
7 9 31 0
7 -9 -31 0
3 9 32 0
3 -9 -32 0
7 9 33 0
7 -9 -33 0
6 9 34 0
6 -9 -34 0
10 9 36 0
10 -9 -36 0
3 9 37 0
3 -9 -37 0
6 9 38 0
6 -9 -38 0
8 9 39 0
8 -9 -39 0
2 9 40 0
2 -9 -40 0
5 10 13 0
5 -10 -13 0
6 10 14 0
6 -10 -14 0
10 10 16 0
10 -10 -16 0
5 10 17 0
5 -10 -17 0
4 10 18 0
4 -10 -18 0
9 10 21 0
9 -10 -21 0
5 10 23 0
5 -10 -23 0
1 10 24 0
1 -10 -24 0
4 10 26 0
4 -10 -26 0
6 10 27 0
6 -10 -27 0
9 10 29 0
9 -10 -29 0
3 10 30 0
3 -10 -30 0
7 10 31 0
7 -10 -31 0
5 10 32 0
5 -10 -32 0
5 10 33 0
5 -10 -33 0
4 10 34 0
4 -10 -34 0
8 10 36 0
8 -10 -36 0
2 10 37 0
2 -10 -37 0
7 10 38 0
7 -10 -38 0
1 10 39 0
1 -10 -39 0
5 10 40 0
5 -10 -40 0
7 11 12 0
7 -11 -12 0
7 11 13 0
7 -11 -13 0
7 11 15 0
7 -11 -15 0
4 11 16 0
4 -11 -16 0
2 11 19 0
2 -11 -19 0
7 11 20 0
7 -11 -20 0
7 11 23 0
7 -11 -23 0
8 11 24 0
8 -11 -24 0
4 11 25 0
4 -11 -25 0
8 11 26 0
8 -11 -26 0
3 11 27 0
3 -11 -27 0
10 11 29 0
10 -11 -29 0
7 11 31 0
7 -11 -31 0
7 11 32 0
7 -11 -32 0
3 11 33 0
3 -11 -33 0
6 11 34 0
6 -11 -34 0
1 11 35 0
1 -11 -35 0
3 11 36 0
3 -11 -36 0
9 11 37 0
9 -11 -37 0
7 11 38 0
7 -11 -38 0
1 11 39 0
1 -11 -39 0
2 12 13 0
2 -12 -13 0
4 12 14 0
4 -12 -14 0
6 12 18 0
6 -12 -18 0
6 12 20 0
6 -12 -20 0
7 12 21 0
7 -12 -21 0
3 12 22 0
3 -12 -22 0
8 12 24 0
8 -12 -24 0
3 12 25 0
3 -12 -25 0
4 12 26 0
4 -12 -26 0
2 12 27 0
2 -12 -27 0
10 12 28 0
10 -12 -28 0
1 12 30 0
1 -12 -30 0
9 12 31 0
9 -12 -31 0
4 12 32 0
4 -12 -32 0
2 12 33 0
2 -12 -33 0
5 12 34 0
5 -12 -34 0
10 12 35 0
10 -12 -35 0
10 12 37 0
10 -12 -37 0
8 12 38 0
8 -12 -38 0
7 12 40 0
7 -12 -40 0
2 13 14 0
2 -13 -14 0
7 13 15 0
7 -13 -15 0
4 13 17 0
4 -13 -17 0
8 13 18 0
8 -13 -18 0
10 13 19 0
10 -13 -19 0
10 13 20 0
10 -13 -20 0
9 13 21 0
9 -13 -21 0
3 13 22 0
3 -13 -22 0
8 13 23 0
8 -13 -23 0
6 13 24 0
6 -13 -24 0
3 13 25 0
3 -13 -25 0
10 13 26 0
10 -13 -26 0
10 13 30 0
10 -13 -30 0
9 13 32 0
9 -13 -32 0
5 13 33 0
5 -13 -33 0
6 13 34 0
6 -13 -34 0
2 13 35 0
2 -13 -35 0
3 13 36 0
3 -13 -36 0
9 13 37 0
9 -13 -37 0
5 13 38 0
5 -13 -38 0
5 13 39 0
5 -13 -39 0
9 14 15 0
9 -14 -15 0
5 14 16 0
5 -14 -16 0
3 14 17 0
3 -14 -17 0
2 14 18 0
2 -14 -18 0
7 14 19 0
7 -14 -19 0
8 14 20 0
8 -14 -20 0
2 14 23 0
2 -14 -23 0
7 14 24 0
7 -14 -24 0
5 14 26 0
5 -14 -26 0
9 14 27 0
9 -14 -27 0
8 14 30 0
8 -14 -30 0
2 14 31 0
2 -14 -31 0
3 14 32 0
3 -14 -32 0
5 14 33 0
5 -14 -33 0
2 14 34 0
2 -14 -34 0
2 14 35 0
2 -14 -35 0
4 14 36 0
4 -14 -36 0
4 14 37 0
4 -14 -37 0
10 14 39 0
10 -14 -39 0
10 14 40 0
10 -14 -40 0
7 15 16 0
7 -15 -16 0
9 15 18 0
9 -15 -18 0
9 15 19 0
9 -15 -19 0
5 15 21 0
5 -15 -21 0
4 15 24 0
4 -15 -24 0
4 15 25 0
4 -15 -25 0
7 15 26 0
7 -15 -26 0
7 15 27 0
7 -15 -27 0
3 15 28 0
3 -15 -28 0
2 15 31 0
2 -15 -31 0
1 15 33 0
1 -15 -33 0
2 15 35 0
2 -15 -35 0
7 15 36 0
7 -15 -36 0
4 15 37 0
4 -15 -37 0
3 15 40 0
3 -15 -40 0
4 16 17 0
4 -16 -17 0
1 16 18 0
1 -16 -18 0
5 16 20 0
5 -16 -20 0
10 16 21 0
10 -16 -21 0
6 16 22 0
6 -16 -22 0
3 16 25 0
3 -16 -25 0
7 16 27 0
7 -16 -27 0
8 16 30 0
8 -16 -30 0
5 16 31 0
5 -16 -31 0
2 16 32 0
2 -16 -32 0
9 16 34 0
9 -16 -34 0
7 16 35 0
7 -16 -35 0
6 16 36 0
6 -16 -36 0
3 16 37 0
3 -16 -37 0
6 16 38 0
6 -16 -38 0
5 16 39 0
5 -16 -39 0
9 16 40 0
9 -16 -40 0
4 17 18 0
4 -17 -18 0
3 17 19 0
3 -17 -19 0
4 17 20 0
4 -17 -20 0
8 17 22 0
8 -17 -22 0
7 17 23 0
7 -17 -23 0
10 17 26 0
10 -17 -26 0
4 17 27 0
4 -17 -27 0
9 17 28 0
9 -17 -28 0
2 17 29 0
2 -17 -29 0
5 17 30 0
5 -17 -30 0
1 17 31 0
1 -17 -31 0
8 17 33 0
8 -17 -33 0
8 17 34 0
8 -17 -34 0
3 17 36 0
3 -17 -36 0
2 17 37 0
2 -17 -37 0
9 17 38 0
9 -17 -38 0
8 17 39 0
8 -17 -39 0
1 17 40 0
1 -17 -40 0
5 18 19 0
5 -18 -19 0
10 18 20 0
10 -18 -20 0
8 18 21 0
8 -18 -21 0
3 18 22 0
3 -18 -22 0
5 18 23 0
5 -18 -23 0
9 18 24 0
9 -18 -24 0
1 18 25 0
1 -18 -25 0
1 18 28 0
1 -18 -28 0
4 18 30 0
4 -18 -30 0
4 18 32 0
4 -18 -32 0
7 18 33 0
7 -18 -33 0
9 18 34 0
9 -18 -34 0
2 18 36 0
2 -18 -36 0
1 18 37 0
1 -18 -37 0
1 18 38 0
1 -18 -38 0
5 18 40 0
5 -18 -40 0
8 19 21 0
8 -19 -21 0
7 19 22 0
7 -19 -22 0
5 19 23 0
5 -19 -23 0
2 19 24 0
2 -19 -24 0
6 19 25 0
6 -19 -25 0
6 19 28 0
6 -19 -28 0
6 19 31 0
6 -19 -31 0
6 19 32 0
6 -19 -32 0
4 19 33 0
4 -19 -33 0
4 19 36 0
4 -19 -36 0
9 19 38 0
9 -19 -38 0
5 19 39 0
5 -19 -39 0
2 20 22 0
2 -20 -22 0
7 20 24 0
7 -20 -24 0
6 20 25 0
6 -20 -25 0
7 20 26 0
7 -20 -26 0
6 20 27 0
6 -20 -27 0
3 20 28 0
3 -20 -28 0
9 20 29 0
9 -20 -29 0
1 20 31 0
1 -20 -31 0
1 20 32 0
1 -20 -32 0
10 20 33 0
10 -20 -33 0
2 20 34 0
2 -20 -34 0
5 20 35 0
5 -20 -35 0
3 20 36 0
3 -20 -36 0
9 20 37 0
9 -20 -37 0
3 20 38 0
3 -20 -38 0
4 20 39 0
4 -20 -39 0
9 20 40 0
9 -20 -40 0
4 21 26 0
4 -21 -26 0
9 21 28 0
9 -21 -28 0
7 21 30 0
7 -21 -30 0
1 21 32 0
1 -21 -32 0
3 21 33 0
3 -21 -33 0
8 21 34 0
8 -21 -34 0
7 21 35 0
7 -21 -35 0
9 21 36 0
9 -21 -36 0
4 21 37 0
4 -21 -37 0
3 21 40 0
3 -21 -40 0
2 22 23 0
2 -22 -23 0
7 22 24 0
7 -22 -24 0
2 22 26 0
2 -22 -26 0
7 22 27 0
7 -22 -27 0
8 22 29 0
8 -22 -29 0
8 22 32 0
8 -22 -32 0
3 22 33 0
3 -22 -33 0
5 22 39 0
5 -22 -39 0
4 22 40 0
4 -22 -40 0
5 23 24 0
5 -23 -24 0
3 23 25 0
3 -23 -25 0
4 23 26 0
4 -23 -26 0
6 23 27 0
6 -23 -27 0
2 23 28 0
2 -23 -28 0
6 23 29 0
6 -23 -29 0
1 23 32 0
1 -23 -32 0
4 23 33 0
4 -23 -33 0
4 23 35 0
4 -23 -35 0
4 23 36 0
4 -23 -36 0
8 23 40 0
8 -23 -40 0
3 24 25 0
3 -24 -25 0
7 24 28 0
7 -24 -28 0
6 24 30 0
6 -24 -30 0
10 24 31 0
10 -24 -31 0
7 24 32 0
7 -24 -32 0
9 24 34 0
9 -24 -34 0
7 24 35 0
7 -24 -35 0
4 24 38 0
4 -24 -38 0
7 24 39 0
7 -24 -39 0
1 25 26 0
1 -25 -26 0
6 25 27 0
6 -25 -27 0
9 25 28 0
9 -25 -28 0
7 25 30 0
7 -25 -30 0
7 25 31 0
7 -25 -31 0
6 25 32 0
6 -25 -32 0
5 25 35 0
5 -25 -35 0
4 25 36 0
4 -25 -36 0
8 25 37 0
8 -25 -37 0
9 25 39 0
9 -25 -39 0
7 25 40 0
7 -25 -40 0
2 26 27 0
2 -26 -27 0
1 26 28 0
1 -26 -28 0
1 26 29 0
1 -26 -29 0
7 26 30 0
7 -26 -30 0
2 26 31 0
2 -26 -31 0
7 26 33 0
7 -26 -33 0
8 26 34 0
8 -26 -34 0
6 26 35 0
6 -26 -35 0
1 26 36 0
1 -26 -36 0
1 26 37 0
1 -26 -37 0
4 26 38 0
4 -26 -38 0
3 27 28 0
3 -27 -28 0
7 27 29 0
7 -27 -29 0
9 27 30 0
9 -27 -30 0
2 27 31 0
2 -27 -31 0
4 27 33 0
4 -27 -33 0
7 27 34 0
7 -27 -34 0
9 27 35 0
9 -27 -35 0
7 27 36 0
7 -27 -36 0
4 27 39 0
4 -27 -39 0
9 28 30 0
9 -28 -30 0
2 28 31 0
2 -28 -31 0
2 28 32 0
2 -28 -32 0
6 28 33 0
6 -28 -33 0
9 28 36 0
9 -28 -36 0
7 28 38 0
7 -28 -38 0
10 28 39 0
10 -28 -39 0
2 28 40 0
2 -28 -40 0
4 29 31 0
4 -29 -31 0
8 29 32 0
8 -29 -32 0
9 29 34 0
9 -29 -34 0
6 29 35 0
6 -29 -35 0
8 29 36 0
8 -29 -36 0
10 29 39 0
10 -29 -39 0
3 29 40 0
3 -29 -40 0
10 30 31 0
10 -30 -31 0
6 30 32 0
6 -30 -32 0
10 30 33 0
10 -30 -33 0
5 30 34 0
5 -30 -34 0
6 30 36 0
6 -30 -36 0
10 30 37 0
10 -30 -37 0
8 30 40 0
8 -30 -40 0
9 31 33 0
9 -31 -33 0
6 31 36 0
6 -31 -36 0
7 31 39 0
7 -31 -39 0
10 31 40 0
10 -31 -40 0
10 32 33 0
10 -32 -33 0
4 32 34 0
4 -32 -34 0
9 32 35 0
9 -32 -35 0
6 32 37 0
6 -32 -37 0
7 32 39 0
7 -32 -39 0
8 32 40 0
8 -32 -40 0
8 33 34 0
8 -33 -34 0
8 33 35 0
8 -33 -35 0
3 33 36 0
3 -33 -36 0
7 33 37 0
7 -33 -37 0
5 33 38 0
5 -33 -38 0
2 33 39 0
2 -33 -39 0
8 33 40 0
8 -33 -40 0
9 34 36 0
9 -34 -36 0
9 34 39 0
9 -34 -39 0
7 34 40 0
7 -34 -40 0
5 35 37 0
5 -35 -37 0
7 35 38 0
7 -35 -38 0
6 35 40 0
6 -35 -40 0
7 36 37 0
7 -36 -37 0
6 36 38 0
6 -36 -38 0
2 37 38 0
2 -37 -38 0
6 37 40 0
6 -37 -40 0
1 39 40 0
1 -39 -40 0
